




































































































35 43 30 71 1 
67 15 19 2 62 49 
36 52 37 12 6 
66 57 16 5 26 
8 7 54 45 48 38 
39 18 3 44 51 
65 60 64 42 4 75 
68 22 41 53 11 25 
9 13 73 23 56 0 
58 33 61 72 46 
55 32 20 14 59 63 
50 24 21 34 76 
74 47 28 31 40 17 
29 69 10 70 27 
